c Result of efficient AIG-to-CNF conversion using package CNF
p cnf 525 1876
2 493 -3 0
2 493 -216 0
2 493 -339 0
-2 -493 0
-2 3 216 339 0
3 520 4 -206 0
3 4 148 -206 0
-3 206 0
-3 -4 0
-3 -520 -148 0
-4 522 5 87 0
-4 -522 59 87 0
4 -87 0
4 522 -5 0
4 -522 -59 0
5 523 -6 0
5 -523 -42 0
-5 -523 42 0
-5 523 6 0
6 524 -7 0
6 -524 -32 0
-6 -524 32 0
-6 524 7 0
7 -8 16 0
-7 8 0
-7 -16 0
8 521 -9 0
-8 -521 0
-8 9 0
9 522 -10 0
9 -522 -13 0
-9 -522 13 0
-9 522 10 0
10 523 -11 0
10 -523 -12 0
-10 -523 12 0
-10 523 11 0
11 -486 -524 0
11 -485 524 0
-11 485 524 0
-11 486 -524 0
12 -488 -524 0
12 -487 524 0
-12 487 524 0
-12 488 -524 0
13 523 -14 0
13 -523 -15 0
-13 -523 15 0
-13 523 14 0
14 -490 -524 0
14 -489 524 0
-14 489 524 0
-14 490 -524 0
15 -492 -524 0
15 -491 524 0
-15 491 524 0
-15 492 -524 0
-16 493 17 0
16 -493 0
16 -17 0
-17 18 19 26 28 0
17 -28 0
17 -18 0
17 -26 0
17 -19 0
-18 494 495 0
18 -494 0
18 -495 0
-19 20 21 22 23 0
19 -23 0
19 -20 0
19 -22 0
19 -21 0
-20 506 507 508 0
20 -506 0
20 -508 0
20 -507 0
-21 504 505 0
21 -504 0
21 -505 0
-22 502 503 0
22 -502 0
22 -503 0
-23 496 497 24 25 0
23 -496 0
23 -25 0
23 -24 0
23 -497 0
-24 500 501 0
24 -500 0
24 -501 0
-25 498 499 0
25 -498 0
25 -499 0
-26 511 512 27 0
26 -27 0
26 -512 0
26 -511 0
-27 509 510 0
27 -509 0
27 -510 0
-28 520 29 31 0
28 -31 0
28 -29 0
28 -520 0
-29 513 514 516 30 0
29 -30 0
29 -516 0
29 -513 0
29 -514 0
-30 515 517 0
30 -515 0
30 -517 0
-31 518 519 0
31 -518 0
31 -519 0
32 16 -33 0
-32 -16 0
-32 33 0
33 521 -34 0
33 -521 -41 0
-33 -521 41 0
-33 521 34 0
34 522 -35 0
34 -522 -38 0
-34 -522 38 0
-34 522 35 0
35 523 -36 0
35 -523 -37 0
-35 -523 37 0
-35 523 36 0
36 -485 -524 0
36 -484 524 0
-36 484 524 0
-36 485 -524 0
37 -487 -524 0
37 -486 524 0
-37 486 524 0
-37 487 -524 0
38 523 -39 0
38 -523 -40 0
-38 -523 40 0
-38 523 39 0
39 -489 -524 0
39 -488 524 0
-39 488 524 0
-39 489 -524 0
40 -491 -524 0
40 -490 524 0
-40 490 524 0
-40 491 -524 0
41 -492 522 523 524 0
-41 -524 0
-41 -523 0
-41 492 0
-41 -522 0
42 524 -43 0
42 -524 -51 0
-42 -524 51 0
-42 524 43 0
43 16 -44 0
-43 -16 0
-43 44 0
44 521 -45 0
44 -521 -49 0
-44 -521 49 0
-44 521 45 0
45 522 -46 0
45 -522 -48 0
-45 -522 48 0
-45 522 46 0
46 -523 -11 0
46 523 -47 0
-46 523 47 0
-46 -523 11 0
47 -484 -524 0
47 -483 524 0
-47 483 524 0
-47 484 -524 0
48 523 -12 0
48 -523 -14 0
-48 -523 14 0
-48 523 12 0
49 522 -50 0
-49 -522 0
-49 50 0
50 -491 523 524 0
50 -492 523 -524 0
-50 -523 0
-50 492 -524 0
-50 491 524 0
51 16 -52 0
-51 -16 0
-51 52 0
52 521 -53 0
52 -521 -57 0
-52 -521 57 0
-52 521 53 0
53 522 -54 0
53 -522 -56 0
-53 -522 56 0
-53 522 54 0
54 -523 -36 0
54 523 -55 0
-54 523 55 0
-54 -523 36 0
55 -483 -524 0
55 -482 524 0
-55 482 524 0
-55 483 -524 0
56 523 -37 0
56 -523 -39 0
-56 -523 39 0
-56 523 37 0
57 522 -58 0
-57 -522 0
-57 58 0
58 523 -40 0
58 -492 -523 524 0
-58 523 40 0
-58 -523 -524 0
-58 492 -523 0
59 523 -60 0
59 -523 -74 0
-59 -523 74 0
-59 523 60 0
60 524 -61 0
60 -524 -67 0
-60 -524 67 0
-60 524 61 0
61 16 -62 0
-61 -16 0
-61 62 0
62 521 -63 0
62 -521 -66 0
-62 -521 66 0
-62 521 63 0
63 -522 -10 0
63 522 -64 0
-63 522 64 0
-63 -522 10 0
64 -523 -47 0
64 523 -65 0
-64 523 65 0
-64 -523 47 0
65 -482 -524 0
65 -481 524 0
-65 481 524 0
-65 482 -524 0
66 522 -13 0
-66 -522 0
-66 13 0
67 16 -68 0
-67 -16 0
-67 68 0
68 521 -69 0
68 -521 -72 0
-68 -521 72 0
-68 521 69 0
69 -522 -35 0
69 522 -70 0
-69 522 70 0
-69 -522 35 0
70 -523 -55 0
70 523 -71 0
-70 523 71 0
-70 -523 55 0
71 -481 -524 0
71 -480 524 0
-71 480 524 0
-71 481 -524 0
72 522 -38 0
72 -522 -73 0
-72 -522 73 0
-72 522 38 0
73 -492 523 524 0
-73 492 0
-73 -524 0
-73 -523 0
74 524 -75 0
74 -524 -81 0
-74 -524 81 0
-74 524 75 0
75 16 -76 0
-75 -16 0
-75 76 0
76 521 -77 0
76 -521 -80 0
-76 -521 80 0
-76 521 77 0
77 -522 -46 0
77 522 -78 0
-77 522 78 0
-77 -522 46 0
78 -523 -65 0
78 523 -79 0
-78 523 79 0
-78 -523 65 0
79 -480 -524 0
79 -479 524 0
-79 479 524 0
-79 480 -524 0
80 522 -48 0
80 -522 -50 0
-80 -522 50 0
-80 522 48 0
81 16 -82 0
-81 -16 0
-81 82 0
82 521 -83 0
82 -521 -86 0
-82 -521 86 0
-82 521 83 0
83 -522 -54 0
83 522 -84 0
-83 522 84 0
-83 -522 54 0
84 -523 -71 0
84 523 -85 0
-84 523 85 0
-84 -523 71 0
85 -479 -524 0
85 -478 524 0
-85 478 524 0
-85 479 -524 0
86 522 -56 0
86 -522 -58 0
-86 -522 58 0
-86 522 56 0
87 -521 -88 0
-87 521 0
-87 88 0
88 522 -89 0
88 -522 -121 0
-88 -522 121 0
-88 522 89 0
89 523 -90 0
89 -523 -108 0
-89 -523 108 0
-89 523 90 0
90 524 -91 0
90 -524 -96 0
-90 -524 96 0
-90 524 91 0
91 16 -92 0
-91 -16 0
-91 92 0
92 -521 -9 0
92 521 -93 0
-92 521 93 0
-92 -521 9 0
93 -522 -64 0
93 522 -94 0
-93 522 94 0
-93 -522 64 0
94 -523 -79 0
94 523 -95 0
-94 523 95 0
-94 -523 79 0
95 -478 -524 0
95 -477 524 0
-95 477 524 0
-95 478 -524 0
96 -520 97 -107 0
96 520 97 -103 0
-96 -97 0
-96 -520 107 0
-96 520 103 0
-97 493 98 0
97 -493 0
97 -98 0
-98 20 99 100 101 0
98 -101 0
98 -20 0
98 -100 0
98 -99 0
-99 511 512 0
99 -511 0
99 -512 0
-100 29 31 0
100 -29 0
100 -31 0
-101 21 22 23 102 0
101 -102 0
101 -21 0
101 -23 0
101 -22 0
-102 494 495 27 0
102 -27 0
102 -495 0
102 -494 0
-103 521 104 0
-103 -521 34 0
103 -521 -34 0
103 521 -104 0
104 -522 -70 0
104 522 -105 0
-104 522 105 0
-104 -522 70 0
105 -523 -85 0
105 523 -106 0
-105 523 106 0
-105 -523 85 0
106 -477 -524 0
106 -476 524 0
-106 476 524 0
-106 477 -524 0
107 521 -41 0
-107 -521 0
-107 41 0
108 524 -109 0
108 -524 -115 0
-108 -524 115 0
-108 524 109 0
109 -520 97 -114 0
109 520 97 -110 0
-109 -97 0
-109 -520 114 0
-109 520 110 0
-110 521 111 0
-110 -521 45 0
110 -521 -45 0
110 521 -111 0
111 -522 -78 0
111 522 -112 0
-111 522 112 0
-111 -522 78 0
112 -523 -95 0
112 523 -113 0
-112 523 113 0
-112 -523 95 0
113 -476 -524 0
113 -475 524 0
-113 475 524 0
-113 476 -524 0
114 521 -49 0
-114 -521 0
-114 49 0
115 -520 97 -120 0
115 520 97 -116 0
-115 -97 0
-115 -520 120 0
-115 520 116 0
-116 521 117 0
-116 -521 53 0
116 -521 -53 0
116 521 -117 0
117 -522 -84 0
117 522 -118 0
-117 522 118 0
-117 -522 84 0
118 -523 -106 0
118 523 -119 0
-118 523 119 0
-118 -523 106 0
119 -475 -524 0
119 -474 524 0
-119 474 524 0
-119 475 -524 0
120 521 -57 0
-120 -521 0
-120 57 0
121 523 -122 0
121 -523 -135 0
-121 -523 135 0
-121 523 122 0
122 524 -123 0
122 -524 -129 0
-122 -524 129 0
-122 524 123 0
123 -520 97 -128 0
123 520 97 -124 0
-123 -97 0
-123 -520 128 0
-123 520 124 0
-124 521 125 0
-124 -521 63 0
124 -521 -63 0
124 521 -125 0
125 -522 -94 0
125 522 -126 0
-125 522 126 0
-125 -522 94 0
126 -523 -113 0
126 523 -127 0
-126 523 127 0
-126 -523 113 0
127 -474 -524 0
127 -473 524 0
-127 473 524 0
-127 474 -524 0
128 521 -66 0
-128 -521 0
-128 66 0
129 -520 97 -134 0
129 520 97 -130 0
-129 -97 0
-129 -520 134 0
-129 520 130 0
-130 521 131 0
-130 -521 69 0
130 -521 -69 0
130 521 -131 0
131 -522 -105 0
131 522 -132 0
-131 522 132 0
-131 -522 105 0
132 -523 -119 0
132 523 -133 0
-132 523 133 0
-132 -523 119 0
133 -473 -524 0
133 -472 524 0
-133 472 524 0
-133 473 -524 0
134 521 -72 0
-134 -521 0
-134 72 0
135 524 -136 0
135 -524 -142 0
-135 -524 142 0
-135 524 136 0
136 -520 97 -141 0
136 520 97 -137 0
-136 -97 0
-136 -520 141 0
-136 520 137 0
-137 521 138 0
-137 -521 77 0
137 -521 -77 0
137 521 -138 0
138 -522 -112 0
138 522 -139 0
-138 522 139 0
-138 -522 112 0
139 -523 -127 0
139 523 -140 0
-139 523 140 0
-139 -523 127 0
140 -472 -524 0
140 -471 524 0
-140 471 524 0
-140 472 -524 0
141 521 -80 0
-141 -521 0
-141 80 0
142 -520 97 -147 0
142 520 97 -143 0
-142 -97 0
-142 -520 147 0
-142 520 143 0
-143 521 144 0
-143 -521 83 0
143 -521 -83 0
143 521 -144 0
144 -522 -118 0
144 522 -145 0
-144 522 145 0
-144 -522 118 0
145 -523 -133 0
145 523 -146 0
-145 523 146 0
-145 -523 133 0
146 -471 -524 0
146 -470 524 0
-146 470 524 0
-146 471 -524 0
147 521 -86 0
-147 -521 0
-147 86 0
148 521 -149 0
148 -521 -198 0
-148 -521 198 0
-148 521 149 0
149 522 -150 0
149 -522 -175 0
-149 -522 175 0
-149 522 150 0
150 523 -151 0
150 -523 -164 0
-150 -523 164 0
-150 523 151 0
151 524 -152 0
151 -524 -157 0
-151 -524 157 0
-151 524 152 0
152 520 97 -153 0
152 -520 -8 97 0
-152 -97 0
-152 520 153 0
-152 -520 8 0
-153 521 154 0
-153 -521 93 0
153 -521 -93 0
153 521 -154 0
154 -522 -126 0
154 522 -155 0
-154 522 155 0
-154 -522 126 0
155 -523 -140 0
155 523 -156 0
-155 523 156 0
-155 -523 140 0
156 -470 -524 0
156 -469 524 0
-156 469 524 0
-156 470 -524 0
157 -520 162 163 0
157 -158 162 163 0
-157 -163 0
-157 -162 0
-157 520 158 0
158 -521 -104 0
158 521 -159 0
-158 521 159 0
-158 -521 104 0
159 -522 -132 0
159 522 -160 0
-159 522 160 0
-159 -522 132 0
160 -523 -146 0
160 523 -161 0
-160 523 161 0
-160 -523 146 0
161 -469 -524 0
161 -468 524 0
-161 468 524 0
-161 469 -524 0
-162 493 494 495 19 0
162 -19 0
162 -495 0
162 -493 0
162 -494 0
-163 520 26 100 0
-163 26 -33 100 0
163 -100 0
163 -26 0
163 -520 33 0
164 524 -165 0
164 -524 -170 0
-164 -524 170 0
-164 524 165 0
165 520 97 -166 0
165 -520 -44 97 0
-165 -97 0
-165 -520 44 0
-165 520 166 0
166 -521 -111 0
166 521 -167 0
-166 521 167 0
-166 -521 111 0
167 -522 -139 0
167 522 -168 0
-167 522 168 0
-167 -522 139 0
168 -523 -156 0
168 523 -169 0
-168 523 169 0
-168 -523 156 0
169 -468 -524 0
169 -467 524 0
-169 467 524 0
-169 468 -524 0
170 520 97 -171 0
170 -520 -52 97 0
-170 -97 0
-170 -520 52 0
-170 520 171 0
171 -521 -117 0
171 521 -172 0
-171 521 172 0
-171 -521 117 0
172 -522 -145 0
172 522 -173 0
-172 522 173 0
-172 -522 145 0
173 -523 -161 0
173 523 -174 0
-173 523 174 0
-173 -523 161 0
174 -467 -524 0
174 -466 524 0
-174 466 524 0
-174 467 -524 0
175 523 -176 0
175 -523 -187 0
-175 -523 187 0
-175 523 176 0
176 524 -177 0
176 -524 -182 0
-176 -524 182 0
-176 524 177 0
177 520 97 -178 0
177 -520 -62 97 0
-177 -97 0
-177 -520 62 0
-177 520 178 0
178 -521 -125 0
178 521 -179 0
-178 521 179 0
-178 -521 125 0
179 -522 -155 0
179 522 -180 0
-179 522 180 0
-179 -522 155 0
180 -523 -169 0
180 523 -181 0
-180 523 181 0
-180 -523 169 0
181 -466 -524 0
181 -465 524 0
-181 465 524 0
-181 466 -524 0
182 520 97 -183 0
182 -520 -68 97 0
-182 -97 0
-182 520 183 0
-182 -520 68 0
-183 -521 131 0
-183 521 184 0
183 -521 -131 0
183 521 -184 0
-184 -522 160 0
-184 522 185 0
184 -522 -160 0
184 522 -185 0
-185 523 186 0
-185 -523 174 0
185 -523 -174 0
185 523 -186 0
186 -465 -524 0
186 -464 524 0
-186 464 524 0
-186 465 -524 0
187 524 -188 0
187 -524 -193 0
-187 -524 193 0
-187 524 188 0
188 520 97 -189 0
188 -520 -76 97 0
-188 -97 0
-188 520 189 0
-188 -520 76 0
-189 -521 138 0
-189 521 190 0
189 -521 -138 0
189 521 -190 0
-190 -522 168 0
-190 522 191 0
190 -522 -168 0
190 522 -191 0
-191 523 192 0
-191 -523 181 0
191 -523 -181 0
191 523 -192 0
192 -464 -524 0
192 -463 524 0
-192 463 524 0
-192 464 -524 0
193 -82 97 -194 0
193 520 97 -194 0
-193 -97 0
-193 194 0
-193 -520 82 0
-194 520 521 195 0
-194 520 -521 144 0
194 -520 0
194 -521 -144 0
194 521 -195 0
-195 -522 173 0
-195 522 196 197 0
195 -522 -173 0
195 522 -197 0
195 522 -196 0
196 -463 523 -524 0
-196 463 0
-196 -523 0
-196 524 0
-197 523 -524 0
-197 -523 186 0
-197 462 523 0
197 -523 -186 0
197 -462 523 524 0
198 522 -199 0
-198 -522 0
-198 199 0
199 523 -200 0
-199 -523 0
-199 200 0
200 524 -201 0
-200 -524 0
-200 201 0
201 -92 97 -202 0
201 520 97 -202 0
-201 -97 0
-201 202 0
-201 -520 92 0
-202 520 521 203 0
-202 520 -521 154 0
202 -520 0
202 -521 -154 0
202 521 -203 0
-203 -522 180 0
-203 522 204 205 0
203 -522 -180 0
203 522 -205 0
203 522 -204 0
204 -462 523 -524 0
-204 462 0
-204 -523 0
-204 524 0
-205 523 -524 0
-205 -523 192 0
-205 461 523 0
205 -523 -192 0
205 -461 523 524 0
206 -485 520 98 0
206 -485 98 207 0
-206 485 0
-206 -98 0
-206 -520 -207 0
-207 521 208 0
-207 -521 215 0
207 -521 -215 0
207 521 -208 0
-208 522 209 0
-208 -522 212 0
208 -522 -212 0
208 522 -209 0
-209 523 210 0
-209 -523 211 0
209 -523 -211 0
209 523 -210 0
-210 501 524 0
-210 500 -524 0
210 -501 524 0
210 -500 -524 0
-211 499 524 0
-211 498 -524 0
211 -499 524 0
211 -498 -524 0
-212 523 213 0
-212 -523 214 0
212 -523 -214 0
212 523 -213 0
-213 497 524 0
-213 496 -524 0
213 -497 524 0
213 -496 -524 0
-214 495 524 0
-214 494 -524 0
214 -495 524 0
214 -494 -524 0
-215 493 522 523 524 0
215 -524 0
215 -523 0
215 -493 0
215 -522 0
-216 217 271 294 316 0
216 -217 0
216 -316 0
216 -294 0
216 -271 0
217 520 218 -255 0
217 218 240 -255 0
-217 255 0
-217 -218 0
-217 -520 -240 0
-218 522 219 232 0
-218 219 226 232 0
218 -219 0
218 -232 0
218 -522 -226 0
-219 220 222 223 0
-219 523 220 222 0
219 -222 0
219 -220 0
219 -523 -223 0
220 -524 -221 0
-220 524 0
-220 221 0
221 16 -114 0
-221 -16 0
-221 114 0
222 493 524 17 -107 0
-222 -493 0
-222 107 0
-222 -17 0
-222 -524 0
223 524 -224 0
223 -524 -225 0
-223 -524 225 0
-223 524 224 0
224 16 -120 0
-224 -16 0
-224 120 0
225 16 -128 0
-225 -16 0
-225 128 0
226 523 -227 0
226 -523 -230 0
-226 -523 230 0
-226 523 227 0
227 524 -228 0
227 -524 -229 0
-227 -524 229 0
-227 524 228 0
228 16 -134 0
-228 -16 0
-228 134 0
229 16 -141 0
-229 -16 0
-229 141 0
230 -524 -7 0
230 524 -231 0
-230 524 231 0
-230 -524 7 0
231 16 -147 0
-231 -16 0
-231 147 0
232 -521 -233 0
-232 521 0
-232 233 0
233 522 -234 0
233 -522 -237 0
-233 -522 237 0
-233 522 234 0
234 523 -235 0
234 -523 -236 0
-234 -523 236 0
-234 523 235 0
235 524 -32 0
235 -524 -43 0
-235 -524 43 0
-235 524 32 0
236 524 -51 0
236 -524 -61 0
-236 -524 61 0
-236 524 51 0
237 523 -238 0
237 -523 -239 0
-237 -523 239 0
-237 523 238 0
238 524 -67 0
238 -524 -75 0
-238 -524 75 0
-238 524 67 0
239 524 -81 0
239 -524 -91 0
-239 -524 91 0
-239 524 81 0
240 521 -241 0
240 -521 -248 0
-240 -521 248 0
-240 521 241 0
241 522 -242 0
241 -522 -245 0
-241 -522 245 0
-241 522 242 0
242 523 -243 0
242 -523 -244 0
-242 -523 244 0
-242 523 243 0
243 524 -96 0
243 -524 -109 0
-243 -524 109 0
-243 524 96 0
244 524 -115 0
244 -524 -123 0
-244 -524 123 0
-244 524 115 0
245 523 -246 0
245 -523 -247 0
-245 -523 247 0
-245 523 246 0
246 524 -129 0
246 -524 -136 0
-246 -524 136 0
-246 524 129 0
247 524 -142 0
247 -524 -152 0
-247 -524 152 0
-247 524 142 0
248 522 -249 0
248 -522 -252 0
-248 -522 252 0
-248 522 249 0
249 523 -250 0
249 -523 -251 0
-249 -523 251 0
-249 523 250 0
250 524 -157 0
250 -524 -165 0
-250 -524 165 0
-250 524 157 0
251 524 -170 0
251 -524 -177 0
-251 -524 177 0
-251 524 170 0
252 523 -253 0
252 -523 -254 0
-252 -523 254 0
-252 523 253 0
253 524 -182 0
253 -524 -188 0
-253 -524 188 0
-253 524 182 0
254 524 -193 0
254 -524 -201 0
-254 -524 201 0
-254 524 193 0
255 -492 520 98 0
255 -492 98 256 0
-255 492 0
-255 -98 0
-255 -520 -256 0
-256 521 257 0
-256 -521 264 0
256 -521 -264 0
256 521 -257 0
-257 522 258 0
-257 -522 261 0
257 -522 -261 0
257 522 -258 0
-258 523 259 0
-258 -523 260 0
258 -523 -260 0
258 523 -259 0
-259 508 524 0
-259 507 -524 0
259 -508 524 0
259 -507 -524 0
-260 506 524 0
-260 505 -524 0
260 -506 524 0
260 -505 -524 0
-261 523 262 0
-261 -523 263 0
261 -523 -263 0
261 523 -262 0
-262 504 524 0
-262 503 -524 0
262 -504 524 0
262 -503 -524 0
-263 502 524 0
-263 501 -524 0
263 -502 524 0
263 -501 -524 0
-264 522 265 0
-264 -522 268 0
264 -522 -268 0
264 522 -265 0
-265 523 266 0
-265 -523 267 0
265 -523 -267 0
265 523 -266 0
-266 500 524 0
-266 499 -524 0
266 -500 524 0
266 -499 -524 0
-267 498 524 0
-267 497 -524 0
267 -498 524 0
267 -497 -524 0
-268 523 269 0
-268 -523 270 0
268 -523 -270 0
268 523 -269 0
-269 496 524 0
-269 495 -524 0
269 -496 524 0
269 -495 -524 0
270 -494 524 0
270 -493 -524 0
-270 494 524 0
-270 493 -524 0
271 520 272 -286 0
271 272 279 -286 0
-271 286 0
-271 -272 0
-271 -520 -279 0
-272 522 273 275 0
-272 273 274 275 0
272 -273 0
272 -275 0
272 -522 -274 0
-273 -523 227 0
-273 523 223 0
273 523 -223 0
273 -523 -227 0
274 523 -230 0
274 -523 -235 0
-274 -523 235 0
-274 523 230 0
275 -521 -276 0
-275 521 0
-275 276 0
276 522 -277 0
276 -522 -278 0
-276 -522 278 0
-276 522 277 0
277 523 -236 0
277 -523 -238 0
-277 -523 238 0
-277 523 236 0
278 523 -239 0
278 -523 -243 0
-278 -523 243 0
-278 523 239 0
279 521 -280 0
279 -521 -283 0
-279 -521 283 0
-279 521 280 0
280 522 -281 0
280 -522 -282 0
-280 -522 282 0
-280 522 281 0
281 523 -244 0
281 -523 -246 0
-281 -523 246 0
-281 523 244 0
282 523 -247 0
282 -523 -250 0
-282 -523 250 0
-282 523 247 0
283 522 -284 0
283 -522 -285 0
-283 -522 285 0
-283 522 284 0
284 523 -251 0
284 -523 -253 0
-284 -523 253 0
-284 523 251 0
285 523 -254 0
-285 -523 0
-285 254 0
286 -490 520 98 0
286 -490 98 287 0
-286 490 0
-286 -98 0
-286 -520 -287 0
-287 521 288 0
-287 -521 291 0
287 -521 -291 0
287 521 -288 0
-288 522 289 0
-288 -522 290 0
288 -522 -290 0
288 522 -289 0
-289 523 260 0
-289 -523 262 0
289 -523 -262 0
289 523 -260 0
-290 523 263 0
-290 -523 266 0
290 -523 -266 0
290 523 -263 0
-291 522 292 0
-291 -522 293 0
291 -522 -293 0
291 522 -292 0
-292 523 267 0
-292 -523 269 0
292 -523 -269 0
292 523 -267 0
-293 493 523 -524 0
-293 494 523 524 0
293 -523 0
293 -494 524 0
293 -493 -524 0
-294 -295 305 0
-294 301 305 0
294 -305 0
294 295 -301 0
295 -520 98 -299 0
295 520 98 -296 0
-295 -98 0
-295 -520 299 0
-295 520 296 0
296 521 -297 0
296 -521 -298 0
-296 -521 298 0
-296 521 297 0
297 522 -59 0
297 -522 -89 0
-297 -522 89 0
-297 522 59 0
298 522 -121 0
298 -522 -150 0
-298 -522 150 0
-298 522 121 0
299 521 -300 0
-299 -521 0
-299 300 0
300 522 -175 0
300 -522 -199 0
-300 -522 199 0
-300 522 175 0
301 -481 520 98 0
301 -481 98 302 0
-301 481 0
-301 -98 0
-301 -520 -302 0
-302 521 303 0
302 -521 0
302 -303 0
-303 522 212 0
-303 -522 523 304 0
303 -522 -523 0
303 522 -212 0
303 -522 -304 0
-304 493 524 0
304 -493 0
304 -524 0
305 520 306 -312 0
305 306 309 -312 0
-305 312 0
-305 -306 0
-305 -520 -309 0
-306 522 226 307 0
-306 -522 234 307 0
306 -307 0
306 522 -226 0
306 -522 -234 0
307 -521 -308 0
-307 521 0
-307 308 0
308 522 -237 0
308 -522 -242 0
-308 -522 242 0
-308 522 237 0
309 521 -310 0
309 -521 -311 0
-309 -521 311 0
-309 521 310 0
310 522 -245 0
310 -522 -249 0
-310 -522 249 0
-310 522 245 0
311 522 -252 0
-311 -522 0
-311 252 0
312 -488 520 98 0
312 -488 98 313 0
-312 488 0
-312 -98 0
-312 -520 -313 0
-313 521 314 0
-313 -521 315 0
313 -521 -315 0
313 521 -314 0
-314 522 261 0
-314 -522 265 0
314 -522 -265 0
314 522 -261 0
-315 522 268 0
315 -522 0
315 -268 0
-316 -317 334 0
-316 320 -322 0
-316 320 334 0
-316 -317 -322 0
316 317 -320 0
316 322 -334 0
317 -520 98 -319 0
317 520 98 -318 0
-317 -98 0
-317 -520 319 0
-317 520 318 0
318 521 -276 0
318 -521 -280 0
-318 -521 280 0
-318 521 276 0
319 521 -283 0
-319 -521 0
-319 283 0
320 -482 520 98 0
320 -482 98 321 0
-320 482 0
-320 -98 0
-320 -520 -321 0
-321 521 291 0
321 -521 0
321 -291 0
322 -520 98 -330 0
322 520 98 -323 0
-322 -98 0
-322 -520 330 0
-322 520 323 0
323 521 -324 0
323 -521 -327 0
-323 -521 327 0
-323 521 324 0
324 522 -325 0
324 -522 -326 0
-324 -522 326 0
-324 522 325 0
325 523 -42 0
325 -523 -60 0
-325 -523 60 0
-325 523 42 0
326 523 -74 0
326 -523 -90 0
-326 -523 90 0
-326 523 74 0
327 522 -328 0
327 -522 -329 0
-327 -522 329 0
-327 522 328 0
328 523 -108 0
328 -523 -122 0
-328 -523 122 0
-328 523 108 0
329 523 -135 0
329 -523 -151 0
-329 -523 151 0
-329 523 135 0
330 521 -331 0
-330 -521 0
-330 331 0
331 522 -332 0
331 -522 -333 0
-331 -522 333 0
-331 522 332 0
332 523 -164 0
332 -523 -176 0
-332 -523 176 0
-332 523 164 0
333 523 -187 0
333 -523 -200 0
-333 -523 200 0
-333 523 187 0
334 -483 520 98 0
334 -483 98 335 0
-334 483 0
-334 -98 0
-334 -520 -335 0
-335 521 336 0
335 -521 0
335 -336 0
-336 522 337 0
-336 -522 338 0
336 -522 -338 0
336 522 -337 0
-337 523 211 0
-337 -523 213 0
337 -523 -213 0
337 523 -211 0
-338 523 214 0
-338 493 -523 524 0
338 523 -214 0
338 -523 -524 0
338 -493 -523 0
-339 340 352 419 437 0
339 -340 0
339 -437 0
339 -419 0
339 -352 0
340 -341 348 -351 0
340 345 348 -351 0
-340 351 0
-340 -348 0
-340 341 -345 0
341 -470 17 342 0
-341 470 0
-341 -17 0
-341 -342 0
-342 521 343 0
-342 -521 344 0
342 -521 -344 0
342 521 -343 0
-343 522 290 0
-343 -522 292 0
343 -522 -292 0
343 522 -290 0
-344 522 293 0
344 -522 0
344 -293 0
345 521 -346 0
345 -521 -347 0
-345 -521 347 0
-345 521 346 0
346 522 -282 0
346 -522 -284 0
-346 -522 284 0
-346 522 282 0
347 522 -285 0
-347 -522 0
-347 285 0
-348 522 274 349 0
-348 -522 277 349 0
348 -349 0
348 522 -274 0
348 -522 -277 0
349 -521 -350 0
-349 521 0
-349 350 0
350 522 -278 0
350 -522 -281 0
-350 -522 281 0
-350 522 278 0
351 -486 520 98 0
351 -486 98 342 0
-351 486 0
-351 -98 0
-351 -520 -342 0
-352 353 367 413 0
-352 -98 353 367 0
352 -367 0
352 -353 0
352 98 -413 0
353 -354 361 -366 0
353 360 361 -366 0
-353 366 0
-353 -361 0
-353 354 -360 0
354 -473 17 355 0
-354 473 0
-354 -17 0
-354 -355 0
-355 -521 303 0
-355 521 356 0
355 521 -356 0
355 -521 -303 0
-356 -522 209 0
-356 522 357 0
356 522 -357 0
356 -522 -209 0
-357 523 358 0
-357 -523 359 0
357 -523 -359 0
357 523 -358 0
-358 505 524 0
-358 504 -524 0
358 -505 524 0
358 -504 -524 0
-359 503 524 0
-359 502 -524 0
359 -503 524 0
359 -502 -524 0
360 521 -298 0
360 -521 -300 0
-360 -521 300 0
-360 521 298 0
-361 5 362 365 0
-361 522 362 365 0
361 -362 0
361 -365 0
361 -522 -5 0
-362 -523 364 0
-362 523 363 0
362 523 -363 0
362 -523 -364 0
363 524 -225 0
363 -524 -228 0
-363 -524 228 0
-363 524 225 0
364 524 -229 0
364 -524 -231 0
-364 -524 231 0
-364 524 229 0
365 -521 -297 0
-365 521 0
-365 297 0
366 -489 520 98 0
366 -489 98 355 0
-366 489 0
-366 -98 0
-366 -520 -355 0
-367 368 371 387 398 0
367 -398 0
367 -368 0
367 -371 0
367 -387 0
-368 341 369 370 0
-368 -345 369 370 0
368 -370 0
368 -369 0
368 -341 345 0
369 -474 17 279 287 0
-369 -287 0
-369 474 0
-369 -17 0
-369 -279 0
370 -476 17 240 256 0
-370 -256 0
-370 476 0
-370 -17 0
-370 -240 0
-371 372 377 0
-371 17 -299 377 0
371 -377 0
371 299 -372 0
371 -17 -372 0
372 494 511 -373 376 0
-372 -494 0
-372 -376 0
-372 373 0
-372 -511 0
373 -465 27 374 375 0
-373 -375 0
-373 465 0
-373 -374 0
-373 -27 0
-374 520 31 0
374 -520 0
374 -31 0
-375 512 29 0
375 -512 0
375 -29 0
-376 495 19 302 0
376 -302 0
376 -19 0
376 -495 0
-377 378 385 386 0
-377 -384 385 386 0
377 -386 0
377 -385 0
377 -378 384 0
378 -475 17 379 0
-378 475 0
-378 -17 0
-378 -379 0
-379 -521 336 0
-379 521 380 0
379 521 -380 0
379 -521 -336 0
-380 522 381 0
-380 -522 383 0
380 -522 -383 0
380 522 -381 0
-381 -523 358 0
-381 523 382 0
381 523 -382 0
381 -523 -358 0
-382 507 524 0
-382 506 -524 0
382 -507 524 0
382 -506 -524 0
-383 -523 210 0
-383 523 359 0
383 523 -359 0
383 -523 -210 0
384 521 -327 0
384 -521 -331 0
-384 -521 331 0
-384 521 327 0
385 -469 17 148 207 0
-385 -207 0
-385 469 0
-385 -17 0
-385 -148 0
386 -472 17 309 313 0
-386 -313 0
-386 472 0
-386 -17 0
-386 -309 0
387 -480 98 388 391 0
-387 -391 0
-387 480 0
-387 -98 0
-387 -388 0
388 -520 98 -390 0
388 520 98 -389 0
-388 -98 0
-388 -520 390 0
-388 520 389 0
389 521 -308 0
389 -521 -310 0
-389 -521 310 0
-389 521 308 0
390 521 -311 0
-390 -521 0
-390 311 0
-391 521 392 394 0
-391 -521 314 392 0
391 -392 0
391 521 -394 0
391 -521 -314 0
392 -520 -393 0
-392 520 0
-392 393 0
-393 521 315 0
393 -521 0
393 -315 0
394 520 -522 -258 0
394 520 522 -395 0
-394 -520 0
-394 -522 258 0
-394 522 395 0
-395 523 396 0
-395 -523 397 0
395 -523 -397 0
395 523 -396 0
-396 512 524 0
-396 511 -524 0
396 -512 524 0
396 -511 -524 0
-397 510 524 0
-397 509 -524 0
397 -510 524 0
397 -509 -524 0
-398 399 405 0
-398 401 -404 405 0
398 -405 0
398 -399 -401 0
398 -399 404 0
399 -462 17 400 0
-399 462 0
-399 -17 0
-399 -400 0
-400 521 344 0
400 -521 0
400 -344 0
-401 22 31 402 403 0
401 -403 0
401 -22 0
401 -402 0
401 -31 0
-402 21 24 25 27 0
402 -27 0
402 -21 0
402 -25 0
402 -24 0
-403 511 520 20 375 0
403 -511 0
403 -375 0
403 -20 0
403 -520 0
404 521 -347 0
-404 -521 0
-404 347 0
-405 406 412 0
-405 -390 401 406 0
405 -406 0
405 390 -412 0
405 -401 -412 0
406 -463 17 407 409 0
-406 -407 0
-406 -409 0
-406 463 0
-406 -17 0
-407 521 408 0
407 -521 0
407 -408 0
-408 522 338 0
408 -522 0
408 -338 0
409 401 -410 0
-409 -401 0
-409 410 0
410 521 -411 0
-410 -521 0
-410 411 0
411 522 -333 0
-411 -522 0
-411 333 0
412 -464 17 393 0
-412 464 0
-412 -17 0
-412 -393 0
413 520 414 -415 0
413 404 414 -415 0
-413 415 0
-413 -414 0
-413 -520 -404 0
-414 521 350 0
-414 -521 346 0
414 -521 -346 0
414 521 -350 0
415 -478 520 416 0
415 -478 -520 400 0
-415 478 0
-415 -520 -400 0
-415 520 -416 0
-416 -521 343 0
-416 521 417 0
416 521 -417 0
416 -521 -343 0
-417 -522 289 0
-417 522 418 0
417 522 -418 0
417 -522 -289 0
-418 -523 259 0
-418 523 397 0
418 523 -397 0
418 -523 -259 0
-419 420 427 432 0
-419 420 -430 432 0
419 -420 0
419 -432 0
419 -427 430 0
420 -378 421 -426 0
420 384 421 -426 0
-420 426 0
-420 -421 0
-420 378 -384 0
-421 521 422 0
-421 324 422 0
421 -422 0
421 -521 -324 0
422 -522 -423 0
422 522 -425 0
422 522 -424 0
-422 -522 423 0
-422 522 424 425 0
423 -523 -6 0
423 523 -364 0
-423 523 364 0
-423 -523 6 0
-424 -523 363 0
-424 523 224 0
-424 523 524 0
424 -523 -363 0
424 523 -524 -224 0
425 523 524 -221 0
-425 221 0
-425 -524 0
-425 -523 0
426 -491 520 98 0
426 -491 98 379 0
-426 491 0
-426 -98 0
-426 -520 -379 0
427 -471 17 428 0
-427 471 0
-427 -17 0
-427 -428 0
-428 -521 408 0
-428 521 429 0
428 521 -429 0
428 -521 -408 0
-429 -522 337 0
-429 522 383 0
429 522 -383 0
429 -522 -337 0
430 -521 -411 0
430 521 -431 0
-430 521 431 0
-430 -521 411 0
431 522 -329 0
431 -522 -332 0
-431 -522 332 0
-431 522 329 0
-432 -17 436 0
-432 -433 -434 436 0
-432 433 434 436 0
432 -436 0
432 17 433 -434 0
432 17 -433 434 0
433 521 -248 0
-433 -521 0
-433 248 0
434 -468 435 0
-434 468 0
-434 -435 0
-435 521 264 0
435 -521 0
435 -264 0
436 -467 17 330 335 0
-436 -335 0
-436 467 0
-436 -17 0
-436 -330 0
-437 438 442 445 453 0
437 -453 0
437 -445 0
437 -438 0
437 -442 0
438 520 439 -441 0
438 410 439 -441 0
-438 441 0
-438 -439 0
-438 -520 -410 0
-439 521 440 0
-439 -521 431 0
439 -521 -431 0
439 521 -440 0
440 522 -326 0
440 -522 -328 0
-440 -522 328 0
-440 522 326 0
441 -479 520 98 0
441 -479 98 407 0
-441 479 0
-441 -98 0
-441 -520 -407 0
442 520 443 -444 0
442 433 443 -444 0
-442 444 0
-442 -443 0
-442 -520 -433 0
-443 -521 241 0
-443 521 233 0
443 521 -233 0
443 -521 -241 0
444 -484 520 98 0
444 -484 98 435 0
-444 484 0
-444 -98 0
-444 -520 -435 0
445 98 446 -450 451 0
-445 -451 0
-445 -98 0
-445 450 0
-445 -446 0
446 520 -521 -208 0
446 520 521 -447 0
-446 -520 0
-446 -521 208 0
-446 521 447 0
-447 -522 357 0
-447 522 448 0
447 522 -448 0
447 -522 -357 0
-448 -523 382 0
-448 523 449 0
448 523 -449 0
448 -523 -382 0
-449 509 524 0
-449 508 -524 0
449 -509 524 0
449 -508 -524 0
450 -477 520 0
450 -477 521 215 0
-450 477 0
-450 -520 -521 0
-450 -520 -215 0
-451 520 452 0
-451 -521 452 0
-451 198 452 0
451 -452 0
451 -520 521 -198 0
-452 -521 149 0
-452 521 88 0
452 521 -88 0
452 -521 -149 0
-453 354 454 458 0
-453 -360 454 458 0
453 -458 0
453 -454 0
453 -354 360 0
454 -427 455 -457 0
454 430 455 -457 0
-454 457 0
-454 -455 0
-454 427 -430 0
-455 -522 325 456 0
-455 522 423 456 0
455 -456 0
455 522 -423 0
455 -522 -325 0
456 -521 -440 0
-456 521 0
-456 440 0
457 -487 520 98 0
457 -487 98 428 0
-457 487 0
-457 -98 0
-457 -520 -428 0
458 -17 459 -460 0
458 319 459 -460 0
-458 460 0
-458 -459 0
-458 17 -319 0
-459 511 512 102 321 0
459 -511 0
459 -321 0
459 -102 0
459 -512 0
460 -466 19 28 0
-460 466 0
-460 -19 0
-460 -28 0
-525 0
2 0

